Route #1: 54 77 83 2 17 69 105 64 94 82
Route #2: 74 21 85 13 40 31 63 57
Route #3: 96 45 100 51 76 15 44 5
Route #4: 71 49 99 11 34 72 29
Route #5: 53 103 101 93 97 43 87 60
Route #6: 14 58 88 91 36 8 48 67
Route #7: 1 104 12 9 84 75 7
Route #8: 52 92 102 24 90 26 62
Route #9: 78 19 27 37 79 46 66 28
Route #10: 33 22
Route #11: 86 18 41 10 16 20 56
Route #12: 35 73 32 3 23 42 30 89 59
Route #13: 55 98 4 70 6 81 50 39
Route #14: 25 47 61 80 65 38 95 68
Cost 26362
